Gurobi Optimizer version 9.1.2 build v9.1.2rc0 (linux64)
Thread count: 36 physical cores, 72 logical processors, using up to 32 threads
Optimize a model with 12 rows, 57 columns and 590 nonzeros
Model fingerprint: 0xf32eec78
Model has 47 quadratic constraints
Coefficient statistics:
  Matrix range     [2e-05, 3e+00]
  QMatrix range    [1e+00, 1e+00]
  QLMatrix range   [1e+00, 1e+00]
  Objective range  [8e-03, 7e-01]
  Bounds range     [1e+00, 1e+00]
  RHS range        [1e+00, 1e+00]
Presolve removed 9 rows and 0 columns

Continuous model is non-convex -- solving as a MIP.

Presolve removed 9 rows and 0 columns
Presolve time: 0.00s
Presolved: 189 rows, 57 columns, 443 nonzeros
Presolved model has 47 bilinear constraint(s)
Variable types: 57 continuous, 0 integer (0 binary)

Root relaxation: objective -1.743721e+00, 44 iterations, 0.00 seconds

    Nodes    |    Current Node    |     Objective Bounds      |     Work
 Expl Unexpl |  Obj  Depth IntInf | Incumbent    BestBd   Gap | It/Node Time

     0     0   -1.74372    0   38          -   -1.74372      -     -    0s
H    0     0                       0.6147548   -1.74372   384%     -    0s
     0     0   -1.64739    0    1    0.61475   -1.64739   368%     -    0s
H    0     0                      -1.6450460   -1.64739  0.14%     -    0s
     0     0     cutoff    0        -1.64505   -1.64505  0.00%     -    0s

Cutting planes:
  RLT: 25
  BQP: 3

Explored 1 nodes (76 simplex iterations) in 0.01 seconds
Thread count was 32 (of 72 available processors)

Solution count 2: -1.64505 0.614755 
No other solutions better than -1.64505

Optimal solution found (tolerance 1.00e-04)
Best objective -1.645045978473e+00, best bound -1.645045978473e+00, gap 0.0000%

User-callback calls 78, time in user-callback 0.00 sec
Gurobi Optimizer version 9.1.2 build v9.1.2rc0 (linux64)
Thread count: 36 physical cores, 72 logical processors, using up to 32 threads
Optimize a model with 24 rows, 120 columns and 2480 nonzeros
Model fingerprint: 0xdd5b8eff
Model has 100 quadratic constraints
Coefficient statistics:
  Matrix range     [8e-06, 4e+00]
  QMatrix range    [1e+00, 1e+00]
  QLMatrix range   [1e+00, 1e+00]
  Objective range  [7e-03, 2e+00]
  Bounds range     [1e+00, 1e+00]
  RHS range        [1e+00, 1e+00]
Presolve removed 16 rows and 0 columns

Continuous model is non-convex -- solving as a MIP.

Presolve removed 16 rows and 0 columns
Presolve time: 0.00s
Presolved: 408 rows, 120 columns, 1351 nonzeros
Presolved model has 100 bilinear constraint(s)
Variable types: 120 continuous, 0 integer (0 binary)

Root relaxation: objective -1.064050e+01, 125 iterations, 0.00 seconds

    Nodes    |    Current Node    |     Objective Bounds      |     Work
 Expl Unexpl |  Obj  Depth IntInf | Incumbent    BestBd   Gap | It/Node Time

     0     0  -10.64050    0  100          -  -10.64050      -     -    0s
H    0     0                       0.8599680  -10.64050  1337%     -    0s
     0     0   -7.30789    0   86    0.85997   -7.30789   950%     -    0s
H    0     0                      -0.1255273   -7.30789  5722%     -    0s
     0     0   -6.57344    0  100   -0.12553   -6.57344  5137%     -    0s
H    0     0                      -0.2926662   -6.57344  2146%     -    0s
     0     0   -6.54631    0  100   -0.29267   -6.54631  2137%     -    0s
     0     0   -6.29831    0  100   -0.29267   -6.29831  2052%     -    0s
H    0     0                      -1.0031502   -6.29831   528%     -    0s
     0     0   -6.29375    0  100   -1.00315   -6.29375   527%     -    0s
     0     0   -6.27719    0  100   -1.00315   -6.27719   526%     -    0s
     0     0   -6.26234    0   90   -1.00315   -6.26234   524%     -    0s
H    0     0                      -1.3086239   -6.26234   379%     -    0s
     0     0   -6.26044    0   90   -1.30862   -6.26044   378%     -    0s
     0     0   -6.25827    0  100   -1.30862   -6.25827   378%     -    0s
H    0     0                      -3.0390293   -6.25827   106%     -    0s
H    0     0                      -4.5329737   -6.25827  38.1%     -    0s
     0     2   -6.25827    0  100   -4.53297   -6.25827  38.1%     -    0s
*  957   690              29      -4.5331252   -5.56963  22.9%  27.5    0s
* 1029   690              35      -4.5917439   -5.56963  21.3%  26.6    0s
* 1030   690              35      -4.5919184   -5.56963  21.3%  26.6    0s
* 1074   770              24      -5.0623433   -5.56963  10.0%  26.3    0s
* 1230   770              21      -5.2739371   -5.56963  5.61%  24.7    0s
* 1571   174              22      -5.2786984   -5.28464  0.11%  20.8    0s
* 1873    42              19      -5.2788486   -5.28188  0.06%  17.7    0s
* 1874    42              19      -5.2788654   -5.28188  0.06%  17.7    0s
* 1902    42              21      -5.2793163   -5.28188  0.05%  17.5    0s
* 1908    42              20      -5.2793397   -5.28188  0.05%  17.4    0s
* 1909    42              20      -5.2793405   -5.28188  0.05%  17.4    0s
* 2043    10              21      -5.2802295   -5.28051  0.01%  16.3    0s
* 2080    10              21      -5.2804883   -5.28051  0.00%  16.0    0s
* 2112    10              22      -5.2804957   -5.28050  0.00%  15.8    0s
* 2113    10              22      -5.2804966   -5.28050  0.00%  15.8    0s

Cutting planes:
  RLT: 69
  BQP: 13
  PSD: 14

Explored 2157 nodes (33916 simplex iterations) in 0.62 seconds
Thread count was 32 (of 72 available processors)

Solution count 10: -5.2805 -5.28049 -5.28023 ... -5.06234
No other solutions better than -5.2805

Optimal solution found (tolerance 1.00e-04)
Best objective -5.280496590336e+00, best bound -5.280496590336e+00, gap 0.0000%

User-callback calls 4586, time in user-callback 0.00 sec



objective value: -5.2804965903359955
objective bound: -5.2804965903359955
x_opt: [0.0, 1.0, 1.0, 0.0, 1.0, 0.3064241188634472, 0.0, 0.0, 1.0, 0.37331565908231096, 0.0, 0.0, 0.0, 1.0, 0.0, 0.8366672502090249, 1.0, 0.9577903520511161, 0.0, 1.0000000000000002]
GUROBI solution time: 0.6192209720611572




